NAME : XML100_3232_03
DIMENSION : 101
NB_CLUSTERS : 6
CLUSTERING_ALG : DBSCAN
CLUSTERING_PARAMS : eps(101), minSamples(3)
CLUSTERS
1 0
2 1 2 11 13 14 15 19 22 23 24 25 28 29 33 34 35 36 38 42 45 51 53 57 62 67 70 74 76 78 79 85 91 92 93 97 99
3 3 27 37 39 41 47 48 50 55 59 61 64 72 83 84 96 98 100
4 4 8 18 30 43 46 58 63 73 75 80 82 87 89 90 94
5 5 6 7 9 10 12 16 17 20 21 26 32 40 44 49 52 60 65 66 68 71 77 81 86 88
6 31 54 56 69 95
EOF